100 100 100
50
17 50 58
58 60 92
5 76 22
33 51 13
63 97 97
99 39 34
48 66 93
3 21 23
74 63 58
26 10 79
82 96 47
54 46 34
35 30 96
37 43 85
57 23 82
92 12 68
10 25 22
62 32 80
49 83 11
74 89 28
23 53 73
24 33 92
79 87 66
75 91 89
54 37 18
23 30 70
28 91 93
96 95 73
4 33 31
99 97 70
88 31 95
100 47 72
97 56 10
49 68 91
82 98 63
47 2 77
2 52 65
74 11 74
64 36 26
68 64 75
14 60 68
82 29 69
16 13 81
46 54 37
34 5 80
89 74 24
63 57 95
65 43 83
44 25 77
89 81 18
